benchmarks/bfuzz0/178421382018152165355470312582310612887.smt2
(set-logic QF_FP)
(declare-const x0 (_ FloatingPoint 8 24))
(declare-const x1 (_ FloatingPoint 8 24))
(declare-const x2 (_ FloatingPoint 8 24))
(declare-const x3 (_ FloatingPoint 8 24))
(declare-const x4 (_ FloatingPoint 8 24))
(declare-const x5 (_ FloatingPoint 8 24))
(declare-const x6 (_ FloatingPoint 8 24))
(declare-const x7 (_ FloatingPoint 8 24))
(declare-const x8 (_ FloatingPoint 8 24))
(declare-const x9 (_ FloatingPoint 8 24))
(assert (fp.eq (fp.div RNE (fp.add RNE x7 x4) (fp.div RNE x9 x4)) (fp.div RNE (fp.neg x6) (fp.sub RNE x8 x7))))
(assert (fp.geq (fp.add RNE (fp.add RNE x2 x4) (fp.mul RNE x2 x3)) (fp.add RNE (fp.add RNE x7 x5) (fp.sub RNE x9 x4))))
(assert (fp.geq (fp.neg (fp.div RNE x4 x2)) (fp.add RNE (fp.mul RNE x3 x6) (fp.sub RNE x4 x7))))
(assert (fp.leq (fp.neg (fp.add RNE x3 x6)) (fp.div RNE (fp.add RNE x8 x8) (fp.mul RNE x3 x0))))
(check-sat)
