db/data/178421382018152165355470312582310612887.z3.out
sat
-------------------
130.342743643
